2 30
282 312 
0 30 23 41 41 86 23 2
1 20 27 67 70 26 44 2
2 62 57 18 28 30 44 2
3 102 94 32 41 52 4 2
4 72 75 26 26 46 47 2
5 67 61 22 15 34 42 2
6 45 48 74 75 14 38 1
7 97 99 27 37 88 60 1
8 33 32 5 7 10 29 2
9 1 1 46 56 57 47 1
10 44 47 85 85 1 68 1
11 50 42 43 53 81 29 1
12 26 35 75 78 35 79 1
13 12 11 49 58 100 54 2
14 11 16 41 42 58 28 1
15 38 44 75 66 52 89 1
16 56 56 41 43 21 6 2
17 75 75 67 70 74 49 2
18 44 52 73 75 82 62 1
19 1 9 80 76 90 87 1
20 44 36 36 43 33 90 2
21 39 47 17 13 3 46 2
22 6 15 56 66 41 41 2
23 23 22 95 96 44 31 2
24 70 76 87 94 85 89 2
25 15 23 49 46 51 77 1
26 84 93 28 36 72 81 2
27 96 87 35 25 23 60 1
28 79 69 94 91 58 100 2
29 39 38 16 9 19 91 1
